--- Job model.gms Start 12/12/20 20:34:54 32.2.0 rc62c018 DEX-DEG x86 64bit/Mac OS X
--- Applying:
    /Library/Frameworks/GAMS.framework/Versions/32/Resources/gmsprmun.txt
--- GAMS Parameters defined
    Input /Users/vadekh/Developer/GitHub/NFL-Reorganization/model.gms
    PageSize 0
    ScrDir /Users/vadekh/Developer/GitHub/NFL-Reorganization/225a/
    SysDir /Library/Frameworks/GAMS.framework/Versions/32/Resources/
    LogOption 3
    ErrMsg 1
    ErrorLog 99
    IDE 1
    LstTitleLeftAligned 1
GAMS 32.2.0   Copyright (C) 1987-2020 GAMS Development. All rights reserved
Licensee: Introduction to Optimization (CS/ISyE/ECE 524) S200826/0001AB-GEN
          University of Wisconsin-Madison, Computer Sciences Dept.   DCE850
          /Users/vadekh/Library/Application Support/GAMS/gamslice.txt
          Evaluation license: Not for commercial or production use
--- Starting compilation
--- model.gms(4) 3 Mb
--- call csv2gdx Coordinates.csv useHeader=y id=teams index=1
No errors, CSV2GDX time = 4ms
--- model.gms(5) 3 Mb
--- GDXin=/Users/vadekh/Developer/GitHub/NFL-Reorganization/Coordinates.gdx
--- model.gms(12) 3 Mb
--- . distances.csv(1024) 3 Mb
--- model.gms(48) 3 Mb
--- Starting execution: elapsed 0:00:00.026
--- Generating MIP model NflReorg
--- model.gms(1069) 8 Mb
---   8,233 rows  1,281 columns  25,823 non-zeroes
---   1,280 discrete-columns
--- Executing CPLEX (Solvelink=2): elapsed 0:00:00.085
IBM ILOG CPLEX   32.2.0 rc62c018 Released Aug 26, 2020 DEG x86 64bit/Mac OS X 
--- GAMS/Cplex Link licensed for continuous and discrete problems.
Cplex 12.10.0.0
Reading data...
Starting Cplex...
Space for names approximately 0.38 Mb
Use option 'names no' to turn use of names off
Version identifier: 12.10.0.0 | 2019-11-26 | 843d4de
CPXPARAM_Advance                                 0
CPXPARAM_Threads                                 1
CPXPARAM_Parallel                                1
CPXPARAM_MIP_Display                             4
CPXPARAM_MIP_Tolerances_AbsMIPGap                0
CPXPARAM_WorkDir                                 "/Users/vadekh/Developer/GitHub/NFL-Reorganization/225a/"
Found incumbent of value 0.000000 after 0.00 sec. (0.24 ticks)
Tried aggregator 1 time.
MIP Presolve eliminated 8193 rows and 1025 columns.
Reduced MIP has 40 rows, 256 columns, and 512 nonzeros.
Reduced MIP has 256 binaries, 0 generals, 0 SOSs, and 0 indicators.
Presolve time = 0.00 sec. (4.43 ticks)
Probing time = 0.00 sec. (0.17 ticks)
Tried aggregator 1 time.
Detecting symmetries...
Reduced MIP has 40 rows, 256 columns, and 512 nonzeros.
Reduced MIP has 256 binaries, 0 generals, 0 SOSs, and 0 indicators.
Presolve time = 0.00 sec. (0.57 ticks)
Root node processing (before b&c):
  Real time             =    0.01 sec. (5.79 ticks)
Sequential b&c:
  Real time             =    0.00 sec. (0.00 ticks)
                          ------------
Total (root+branch&cut) =    0.01 sec. (5.79 ticks)
MIP status(101): integer optimal solution
Cplex Time: 0.01sec (det. 5.79 ticks)
Fixing integer variables, and solving final LP...
Version identifier: 12.10.0.0 | 2019-11-26 | 843d4de
CPXPARAM_Advance                                 2
CPXPARAM_Threads                                 1
CPXPARAM_Parallel                                1
CPXPARAM_MIP_Display                             4
CPXPARAM_MIP_Tolerances_AbsMIPGap                0
CPXPARAM_WorkDir                                 "/Users/vadekh/Developer/GitHub/NFL-Reorganization/225a/"
Tried aggregator 1 time.
LP Presolve eliminated 8233 rows and 1281 columns.
All rows and columns eliminated.
Presolve time = 0.00 sec. (2.89 ticks)
Fixed MIP status(1): optimal
Cplex Time: 0.01sec (det. 5.41 ticks)
Proven optimal solution.
MIP Solution:      1074130.921984    (0 iterations, 0 nodes)
Final Solve:       1074130.921984    (0 iterations)
Best possible:     1074130.921984
Absolute gap:            0.000000
Relative gap:            0.000000
--- Reading solution for model NflReorg
--- Executing after solve: elapsed 0:00:00.227
--- model.gms(1072) 8 Mb
*** Status: Normal completion
--- Job model.gms Stop 12/12/20 20:34:55 elapsed 0:00:00.228
